WARNING: for repeatability, setting FPU to use double precision
============================[ Problem Statistics ]=============================
|                                                                             |
|  Number of variables:           100                                         |
|  Number of clauses:             449                                         |
|  Parse time:                   0.00 s                                       |
|  Eliminated clauses:           0.00 Mb                                      |
|  Simplification time:          0.00 s                                       |
|                                                                             |
============================[ Search Statistics ]==============================
| Conflicts |          ORIGINAL         |          LEARNT          | Progress |
|           |    Vars  Clauses Literals |    Limit  Clauses Lit/Cl |          |
===============================================================================
|       100 |      98      441     1331 |      161      100      7 |  0.010 % |
===============================================================================
restarts              : 3
conflicts             : 242            (105401 /sec)
decisions             : 302            (0.00 % random) (131533 /sec)
propagations          : 5432           (2365854 /sec)
conflict literals     : 1540           (15.89 % deleted)
Memory used           : 13.00 MB
CPU time              : 0.002296 s

SATISFIABLE
